*SENSE:Minimize
NAME          MODEL
ROWS
 N  OBJ
 G  C0000000
 G  C0000001
 G  C0000002
 G  C0000003
 G  C0000004
 G  C0000005
 G  C0000006
 G  C0000007
 G  C0000008
 G  C0000009
 G  C0000010
 G  C0000011
 G  C0000012
 G  C0000013
COLUMNS
    X0000000  C0000000   8.798000000000e+01
    X0000000  OBJ        8.798000000000e+01
    X0000001  C0000001   1.170000000000e+02
    X0000001  OBJ        1.170000000000e+02
    X0000002  C0000002   1.057000000000e+01
    X0000002  OBJ        1.057000000000e+01
    X0000003  C0000003   1.090000000000e+01
    X0000003  OBJ        1.090000000000e+01
    X0000004  C0000004   1.737900000000e+02
    X0000004  OBJ        1.737900000000e+02
    X0000005  C0000005   1.115000000000e+02
    X0000005  OBJ        1.115000000000e+02
    X0000006  C0000006   1.409300000000e+02
    X0000006  OBJ        1.409300000000e+02
    X0000007  C0000007   1.588000000000e+02
    X0000007  OBJ        1.588000000000e+02
    X0000008  C0000008   1.501600000000e+02
    X0000008  OBJ        1.501600000000e+02
    X0000009  C0000009   1.187000000000e+02
    X0000009  OBJ        1.187000000000e+02
    X0000010  C0000010   1.022900000000e+02
    X0000010  OBJ        1.022900000000e+02
    X0000011  C0000011   1.217000000000e+02
    X0000011  OBJ        1.217000000000e+02
    X0000012  C0000012   8.938000000000e+01
    X0000012  OBJ        8.938000000000e+01
    X0000013  C0000013   1.050000000000e+02
    X0000013  OBJ        1.050000000000e+02
RHS
    RHS       C0000000   1.253764772519e-01
    RHS       C0000001   5.129830477089e-03
    RHS       C0000002   1.248735447726e-01
    RHS       C0000003   3.846526060548e-01
    RHS       C0000004   2.628213870621e-02
    RHS       C0000005   2.700695381086e-02
    RHS       C0000006   8.585198688584e-03
    RHS       C0000007   4.213150825696e-02
    RHS       C0000008   3.758791017457e-02
    RHS       C0000009   4.140819918627e-02
    RHS       C0000010   6.280683665132e-03
    RHS       C0000011   1.353564847708e-01
    RHS       C0000012   2.966450119032e-02
    RHS       C0000013   5.663962993903e-03
BOUNDS
ENDATA
